15
-1 79 14 11 14 20 1 2 3 2 3 4 1 2 3
30 -1 10 14 20 3 2 3 2 3 2 2 2 3 3
12 20 -1 10 22 50 3 4 4 4 5 1 3 5 3
16 12 15 -1 14 72 4 5 1 1 1 2 4 2 3
15 42 32 24 -1 28 5 6 2 2 3 3 2 1 3
50 81 60 52 38 -1 6 7 3 3 2 5 1 3 3
7 6 5 4 3 2 -1 1 4 4 4 1 1 2 3
8 7 6 5 4 3 2 -1 1 2 5 2 2 6 3
9 8 7 6 5 4 3 2 -1 1 6 3 3 1 3
10 9 8 7 6 5 4 3 2 -1 1 5 5 2 3
11 10 9 8 7 6 5 4 3 2 -1 2 1 3 3
12 11 10 9 8 7 6 5 4 3 2 -1 3 6 3
13 12 11 10 9 8 7 6 5 4 3 2 -1 1 3 
14 13 12 11 10 9 8 7 6 5 4 3 2 -1 2 
15 14 13 12 11 10 9 8 7 6 5 4 3 2 -1 